\ This file has been generated by DOcplex
\ ENCODING=ISO-8859-1
\Problem name: random_problem.lp

Minimize
 obj: 6 x0 - 2 x1 + 7 x2 + 9 x3 + 6 x4 - 7 x5 - 2 x6 + 9 x7 + [ 12 x0*x1
      + 6 x0*x2 + 14 x0*x3 - 6 x0*x5 - 14 x0*x7 - 14 x1*x2 + 20 x1*x3 - 20 x1*x5
      - 4 x1*x6 - 2 x2*x4 - 12 x2*x5 - 16 x2*x6 - 6 x3*x4 + 10 x3*x6 + 12 x3*x7
      - 20 x4*x5 + 16 x4*x6 - 8 x4*x7 - 6 x5*x6 ]/2
Subject To
 c0: x1 - x2 + 2 x4 + x5 + 2 x7 = 0

Bounds
 0 <= x0 <= 1
 0 <= x1 <= 1
 0 <= x2 <= 1
 0 <= x3 <= 1
 0 <= x4 <= 1
 0 <= x5 <= 1
 0 <= x6 <= 1
 0 <= x7 <= 1

Binaries
 x0 x1 x2 x3 x4 x5 x6 x7
End
